min:    y_0 + y_1 + y_2 + y_3 + y_4;


   a0: x_0_0 + x_0_1 + x_0_2 + x_0_3 + x_0_4 =  1;
   a1: x_1_0 + x_1_1 + x_1_2 + x_1_3 + x_1_4 =  1;
   a2: x_2_0 + x_2_1 + x_2_2 + x_2_3 + x_2_4 =  1;
   a3: x_3_0 + x_3_1 + x_3_2 + x_3_3 + x_3_4 =  1;
   a4: x_4_0 + x_4_1 + x_4_2 + x_4_3 + x_4_4 =  1;

   b0: x_0_0 + -1 y_0 <=  0;
   b5: x_0_1 + -1 y_1 <=  0;
   b10: x_0_2 + -1 y_2 <=  0;
   b15: x_0_3 + -1 y_3 <=  0;
   b20: x_0_4 + -1 y_4 <=  0;
   b1: x_1_0 + -1 y_0 <=  0;
   b6: x_1_1 + -1 y_1 <=  0;
   b11: x_1_2 + -1 y_2 <=  0;
   b16: x_1_3 + -1 y_3 <=  0;
   b21: x_1_4 + -1 y_4 <=  0;
   b2: x_2_0 + -1 y_0 <=  0;
   b7: x_2_1 + -1 y_1 <=  0;
   b12: x_2_2 + -1 y_2 <=  0;
   b17: x_2_3 + -1 y_3 <=  0;
   b22: x_2_4 + -1 y_4 <=  0;
   b3: x_3_0 + -1 y_0 <=  0;
   b8: x_3_1 + -1 y_1 <=  0;
   b13: x_3_2 + -1 y_2 <=  0;
   b18: x_3_3 + -1 y_3 <=  0;
   b23: x_3_4 + -1 y_4 <=  0;
   b4: x_4_0 + -1 y_0 <=  0;
   b9: x_4_1 + -1 y_1 <=  0;
   b14: x_4_2 + -1 y_2 <=  0;
   b19: x_4_3 + -1 y_3 <=  0;
   b24: x_4_4 + -1 y_4 <=  0;

   c100: x_0_4 + x_0_4 <=  1;
   c105: x_0_4 + x_1_4 <=  1;
   c110: x_0_4 + x_2_4 <=  1;
   c115: x_0_4 + x_3_4 <=  1;
   c120: x_0_4 + x_4_4 <=  1;
   c51: x_1_2 + x_0_2 <=  1;
   c76: x_1_3 + x_0_3 <=  1;
   c101: x_1_4 + x_0_4 <=  1;
   c56: x_1_2 + x_1_2 <=  1;
   c81: x_1_3 + x_1_3 <=  1;
   c106: x_1_4 + x_1_4 <=  1;
   c61: x_1_2 + x_2_2 <=  1;
   c86: x_1_3 + x_2_3 <=  1;
   c111: x_1_4 + x_2_4 <=  1;
   c66: x_1_2 + x_3_2 <=  1;
   c91: x_1_3 + x_3_3 <=  1;
   c116: x_1_4 + x_3_4 <=  1;
   c71: x_1_2 + x_4_2 <=  1;
   c96: x_1_3 + x_4_3 <=  1;
   c121: x_1_4 + x_4_4 <=  1;
   c27: x_2_1 + x_0_1 <=  1;
   c77: x_2_3 + x_0_3 <=  1;
   c102: x_2_4 + x_0_4 <=  1;
   c32: x_2_1 + x_1_1 <=  1;
   c82: x_2_3 + x_1_3 <=  1;
   c107: x_2_4 + x_1_4 <=  1;
   c37: x_2_1 + x_2_1 <=  1;
   c87: x_2_3 + x_2_3 <=  1;
   c112: x_2_4 + x_2_4 <=  1;
   c42: x_2_1 + x_3_1 <=  1;
   c92: x_2_3 + x_3_3 <=  1;
   c117: x_2_4 + x_3_4 <=  1;
   c47: x_2_1 + x_4_1 <=  1;
   c97: x_2_3 + x_4_3 <=  1;
   c122: x_2_4 + x_4_4 <=  1;
   c28: x_3_1 + x_0_1 <=  1;
   c53: x_3_2 + x_0_2 <=  1;
   c33: x_3_1 + x_1_1 <=  1;
   c58: x_3_2 + x_1_2 <=  1;
   c38: x_3_1 + x_2_1 <=  1;
   c63: x_3_2 + x_2_2 <=  1;
   c43: x_3_1 + x_3_1 <=  1;
   c68: x_3_2 + x_3_2 <=  1;
   c48: x_3_1 + x_4_1 <=  1;
   c73: x_3_2 + x_4_2 <=  1;
   c4: x_4_0 + x_0_0 <=  1;
   c29: x_4_1 + x_0_1 <=  1;
   c54: x_4_2 + x_0_2 <=  1;
   c9: x_4_0 + x_1_0 <=  1;
   c34: x_4_1 + x_1_1 <=  1;
   c59: x_4_2 + x_1_2 <=  1;
   c14: x_4_0 + x_2_0 <=  1;
   c39: x_4_1 + x_2_1 <=  1;
   c64: x_4_2 + x_2_2 <=  1;
   c19: x_4_0 + x_3_0 <=  1;
   c44: x_4_1 + x_3_1 <=  1;
   c69: x_4_2 + x_3_2 <=  1;
   c24: x_4_0 + x_4_0 <=  1;
   c49: x_4_1 + x_4_1 <=  1;
   c74: x_4_2 + x_4_2 <=  1;

bin    x_0_0, x_0_1, x_0_2, x_0_3, x_0_4, x_1_0, x_1_1, x_1_2, x_1_3, x_1_4, x_2_0, x_2_1, x_2_2, x_2_3, x_2_4, x_3_0, x_3_1, x_3_2, x_3_3, x_3_4, x_4_0, x_4_1, x_4_2, x_4_3, x_4_4;

bin   y_0, y_1, y_2, y_3, y_4;

